&CONTROL
  calculation = 'relax'
  outdir = './out_SMBA2PbI4_150.000_150.000/'
  prefix = 'SMBA2PbI4_150.000_150.000'
  pseudo_dir = './pseudo/'
  verbosity = 'low'
  etot_conv_thr = 1.0000000000d-05
  forc_conv_thr = 1.0000000000d-04
  max_seconds = 13800
/
&SYSTEM
  ecutrho = 4.0000000000d+02
  ecutwfc = 5.0000000000d+01
  ibrav = 0
  nat = 188
  ntyp = 5
  occupations = 'fixed'
  noncolin = .true.
  lspinorb = .true.
  nbnd = 570
/
&ELECTRONS
  conv_thr = 3.7600000000d-08
  noncolin = 4.0000000000d-01
/
&IONS
/
ATOMIC_SPECIES
Pb 207.200000 Pb.pbesol-FR.upf
I  126.904470 I.pbesol-n-kjpaw_psl.0.2.UPF
C   12.010700 C.pbesol-n-kjpaw_psl.1.0.0.UPF
H    1.007940 H.pbesol-rrkjus_psl.1.0.0.UPF
N   14.006700 N.pbesol-theos.UPF
ATOMIC_POSITIONS crystal
Pb    0.6479500000   0.7433600000   0.5747200000  0 0 1
Pb    0.1479500000   0.2433600000   0.5747200000  0 0 1
Pb   -0.6479500000  -0.2433600000   0.0747200000  0 0 1
Pb   -0.1479500000   0.2566400000   0.0747200000  0 0 1
I     0.4675560000   0.4288920000   0.5747200000  0 0 1
I    -0.0324440000   0.5578280000   0.5747200000  0 0 1
I     0.3283440000  -0.0711080000   0.5747200000  0 0 1
I    -0.1716560000   0.0578280000   0.5747200000  0 0 1
I     0.6278260000   0.7082800000   0.6896080000  1 1 1
I     0.6278260000   0.7082800000   0.4598320000  1 1 1
I     0.0846180000   0.3537620000   0.6896080000  1 1 1
I     0.0846180000   0.3537620000   0.4598320000  1 1 1
I    -0.4675560000   0.0711080000   0.0747200000  0 0 1
I     0.0324440000  -0.0578280000   0.0747200000  0 0 1
I    -0.3283440000   0.5711080000   0.0747200000  0 0 1
I     0.1716560000   0.4421720000   0.0747200000  0 0 1
I    -0.6278260000  -0.2082800000   0.1896080000  1 1 1
I    -0.6278260000  -0.2082800000  -0.0401680000  1 1 1
I    -0.0846180000   0.1462380000   0.1896080000  1 1 1
I    -0.0846180000   0.1462380000  -0.0401680000  1 1 1
C     0.7978180000   0.2608660000   0.8281750000  1 1 1
C     0.7021730000   0.7609310000   0.8204690000  1 1 1
C     0.2021590000   0.2390920000   0.3281590000  1 1 1
C     0.2978260000   0.7391340000   0.3204580000  1 1 1
C     0.2129040000   0.2077790000   0.8222280000  1 1 1
C     0.2870960000   0.7077420000   0.8263860000  1 1 1
C     0.7871010000   0.2922400000   0.3222420000  1 1 1
C     0.7129040000   0.7922380000   0.3263940000  1 1 1
C     0.3174340000   0.1146430000   0.7964530000  1 1 1
C     0.1825840000   0.6146020000   0.8521390000  1 1 1
C     0.6826180000   0.3854150000   0.2964840000  1 1 1
C     0.8174310000   0.8853520000   0.3521840000  1 1 1
C     0.6799160000   0.3589310000   0.8446030000  1 1 1
C     0.8200560000   0.8590330000   0.8040800000  1 1 1
C     0.3200260000   0.1409970000   0.3445670000  1 1 1
C     0.1799450000   0.6410440000   0.3040240000  1 1 1
C     0.3679520000   0.1729230000   0.8964400000  1 1 1
C     0.1319400000   0.6729840000   0.7521810000  1 1 1
C     0.6319530000   0.3270010000   0.3964350000  1 1 1
C     0.8679810000   0.8271130000   0.2522010000  1 1 1
C     0.4469260000   0.0506460000   0.8204010000  1 1 1
C     0.0530350000   0.5506630000   0.8281870000  1 1 1
C     0.5530830000   0.4493710000   0.3204290000  1 1 1
C     0.9469400000   0.9493480000   0.3282560000  1 1 1
C     0.3999250000   0.2116810000   0.9495740000  1 1 1
C     0.0999560000   0.7117510000   0.6990590000  1 1 1
C     0.5999600000   0.2882300000   0.4495540000  1 1 1
C     0.8999630000   0.7883730000   0.1990670000  1 1 1
C     0.5663210000   0.3655090000   0.7632660000  1 1 1
C     0.9337460000   0.8654220000   0.8854050000  1 1 1
C     0.4337510000   0.1345710000   0.2632540000  1 1 1
C     0.0663290000   0.6344890000   0.3853480000  1 1 1
C     0.2376490000   0.2360520000   0.8721580000  1 1 1
C     0.2622910000   0.7360610000   0.7764680000  1 1 1
C     0.7622890000   0.2639050000   0.3721550000  1 1 1
C     0.7376650000   0.7639820000   0.2764650000  1 1 1
C     0.5644280000   0.4121000000   0.8122510000  1 1 1
C     0.9355860000   0.9121290000   0.8364460000  1 1 1
C     0.4355690000   0.0878840000   0.3122180000  1 1 1
C     0.0644520000   0.5878760000   0.3363660000  1 1 1
C     0.4725860000   0.0798470000   0.8701890000  1 1 1
C     0.0273100000   0.5799210000   0.7784140000  1 1 1
C     0.5273460000   0.4200990000   0.3701980000  1 1 1
C     0.9726170000   0.9201680000   0.2784690000  1 1 1
C     0.5342480000   0.1507130000   0.6754740000  1 1 1
C     0.9658300000   0.6504830000   0.9731070000  1 1 1
C     0.4658680000   0.3494670000   0.1755380000  1 1 1
C     0.0342220000   0.8493300000   0.4731230000  1 1 1
C     0.4196200000   0.3805830000   0.9589330000  1 1 1
C     0.0802680000   0.8806520000   0.6897430000  1 1 1
C     0.5802950000   0.1193280000   0.4588730000  1 1 1
C     0.9196640000   0.6194750000   0.1897050000  1 1 1
C     0.6852640000   0.2674930000   0.7464160000  1 1 1
C     0.8148100000   0.7673820000   0.9022180000  1 1 1
C     0.3148260000   0.2326100000   0.2464230000  1 1 1
C     0.1852620000   0.7325240000   0.4022060000  1 1 1
C     0.6887100000   0.2154030000   0.6937510000  1 1 1
C     0.8113730000   0.7152150000   0.9548600000  1 1 1
C     0.3114060000   0.2847570000   0.1937780000  1 1 1
C     0.1886900000   0.7846290000   0.4548690000  1 1 1
C     0.8014650000   0.2169970000   0.7789700000  1 1 1
C     0.6985680000   0.7169650000   0.8696520000  1 1 1
C     0.1985780000   0.2830410000   0.2789750000  1 1 1
C     0.3014620000   0.7830220000   0.3696600000  1 1 1
H     0.8857200000   0.2165480000   0.8542360000  1 1 1
H     0.6142470000   0.7166570000   0.7943930000  1 1 1
H     0.1142180000   0.2833760000   0.3542230000  1 1 1
H     0.3857240000   0.7834590000   0.2944010000  1 1 1
H     0.1142780000   0.2625540000   0.8028550000  1 1 1
H     0.3857620000   0.7624810000   0.8457650000  1 1 1
H     0.8857540000   0.2374840000   0.3028670000  1 1 1
H     0.6142630000   0.7374640000   0.3457530000  1 1 1
H     0.2983590000   0.0955490000   0.7569490000  1 1 1
H     0.2017210000   0.5954540000   0.8916320000  1 1 1
H     0.7017620000   0.4045800000   0.2569930000  1 1 1
H     0.7983390000   0.9044330000   0.3916870000  1 1 1
H     0.6792160000   0.3919440000   0.8835670000  1 1 1
H     0.8207180000   0.8921310000   0.7651330000  1 1 1
H     0.3206680000   0.1079100000   0.3835160000  1 1 1
H     0.1792620000   0.6080110000   0.2650610000  1 1 1
H     0.5314670000   0.9798210000   0.8001340000  1 1 1
H     0.9685030000   0.4798360000   0.8484370000  1 1 1
H     0.4685710000   0.5202280000   0.3001740000  1 1 1
H     0.0314810000   0.0201610000   0.3485350000  1 1 1
H     0.5069600000   0.1499710000   0.9620700000  1 1 1
H    -0.0070770000   0.6500380000   0.6865440000  1 1 1
H     0.4929170000   0.3499300000   0.4620560000  1 1 1
H     1.0069950000   0.8500940000   0.1865820000  1 1 1
H     0.4717380000   0.4033930000   0.7383390000  1 1 1
H     1.0283640000   0.9032340000   0.9103430000  1 1 1
H     0.5283740000   0.0967430000   0.2383300000  1 1 1
H    -0.0282530000   0.5966050000   0.4102670000  1 1 1
H     0.1550160000   0.3104020000   0.8921300000  1 1 1
H     0.3449200000   0.8104020000   0.7565130000  1 1 1
H     0.8448950000   0.1895370000   0.3921140000  1 1 1
H     0.6550320000   0.6896480000   0.2564800000  1 1 1
H     0.4692250000   0.4868610000   0.8252330000  1 1 1
H     0.0307760000   0.9869160000   0.8234890000  1 1 1
H     0.5307490000   0.0131000000   0.3251870000  1 1 1
H     0.9692620000   0.5130980000   0.3233770000  1 1 1
H     0.5768150000   0.0318410000   0.8886840000  1 1 1
H     0.9230380000   0.5319610000   0.7599160000  1 1 1
H     0.4230880000   0.4680740000   0.3886900000  1 1 1
H     0.0768530000   0.9681790000   0.2599880000  1 1 1
H     0.7175490000   0.3244180000   0.6251070000  1 1 1
H     0.7825410000   0.8241900000   1.0235430000  1 1 1
H     0.2825620000   0.1757630000   0.1250970000  1 1 1
H     0.2175190000   0.6756330000   0.5235190000  1 1 1
H     0.6775720000   0.4488490000   0.6712130000  1 1 1
H     0.8225120000   0.9486380000   0.9774730000  1 1 1
H     0.3225290000   0.0513260000   0.1711720000  1 1 1
H     0.1775170000   0.5511920000   0.4774130000  1 1 1
H     0.8591660000   0.3658110000   0.6669590000  1 1 1
H     0.6409260000   0.8656100000   0.9817020000  1 1 1
H     0.1409470000   0.1343630000   0.1669290000  1 1 1
H     0.3591210000   0.6342070000   0.4816760000  1 1 1
H     0.2697530000   0.0335000000   0.9804360000  1 1 1
H     0.2301910000   0.5335720000   0.6681750000  1 1 1
H     0.7301630000   0.4664320000   0.4804500000  1 1 1
H     0.7697770000   0.9665500000   0.1682000000  1 1 1
H     0.2816000000   0.1887890000   1.0175840000  1 1 1
H     0.2182540000   0.6887850000   0.6310400000  1 1 1
H     0.7182550000   0.3112110000   0.5175830000  1 1 1
H     0.7816430000   0.8112730000   0.1310480000  1 1 1
H     0.1553490000   0.1904190000   0.9696240000  1 1 1
H     0.3445280000   0.6905550000   0.6789970000  1 1 1
H     0.8445240000   0.3094680000   0.4696340000  1 1 1
H     0.6553890000   0.8096130000   0.1789980000  1 1 1
H     0.5438690000   0.1155080000   0.6365180000  1 1 1
H     0.9562180000   0.6152220000   1.0120490000  1 1 1
H     0.4562520000   0.3847080000   0.1365930000  1 1 1
H     0.0438170000   0.8845410000   0.5120810000  1 1 1
H     0.5040330000   0.0484700000   0.6971050000  1 1 1
H     0.9960160000   0.5482650000   0.9514320000  1 1 1
H     0.4960710000   0.4516950000   0.1972080000  1 1 1
H     0.0040340000   0.9515740000   0.4514870000  1 1 1
H     0.4363570000   0.2331550000   0.6787330000  1 1 1
H     0.0637340000   0.7329150000   0.9698780000  1 1 1
H     0.5637630000   0.2670260000   0.1787780000  1 1 1
H     0.9363250000   0.7668950000   0.4698500000  1 1 1
H     0.3101330000   0.4440580000   0.9505340000  1 1 1
H     0.1897610000   0.9441210000   0.6981600000  1 1 1
H     0.6898090000   0.0558760000   0.4504790000  1 1 1
H     0.8101760000   0.5559930000   0.1980920000  1 1 1
H     0.4521710000   0.4039430000   0.9976680000  1 1 1
H     0.0477310000   0.9040070000   0.6510130000  1 1 1
H     0.5477200000   0.0959830000   0.4975980000  1 1 1
H     0.9522210000   0.5961280000   0.1509730000  1 1 1
H     0.5143570000   0.4261420000   0.9352950000  1 1 1
H    -0.0144710000   0.9262170000   0.7133910000  1 1 1
H     0.4855950000   0.0737290000   0.4352090000  1 1 1
H     1.0143980000   0.5739100000   0.2133510000  1 1 1
H     0.7845170000   0.1306200000   0.6888490000  1 1 1
H     0.7155570000   0.6304310000   0.9597280000  1 1 1
H     0.2155990000   0.3695460000   0.1888990000  1 1 1
H     0.2845010000   0.8694100000   0.4597800000  1 1 1
H     0.8954250000   0.1419990000   0.7652830000  1 1 1
H     0.6046200000   0.6419460000   0.8833120000  1 1 1
H     0.1046360000   0.3580570000   0.2653000000  1 1 1
H     0.3954090000   0.8580390000   0.3833540000  1 1 1
N     0.7367060000   0.3472960000   0.6622440000  1 1 1
N     0.7633830000   0.8470830000   0.9864130000  1 1 1
N     0.2634040000   0.1528820000   0.1622260000  1 1 1
N     0.2366670000   0.6527410000   0.4863830000  1 1 1
N     0.2680410000   0.1536300000   0.9811920000  1 1 1
N     0.2318490000   0.6537010000   0.6674290000  1 1 1
N     0.7318410000   0.3463030000   0.4811950000  1 1 1
N     0.7680760000   0.8464200000   0.1674410000  1 1 1
K_POINTS automatic
6 6 2 0 0 0
CELL_PARAMETERS angstrom
      8.4318200000  0.0000000000  0.0000000000
     -0.0000810450  8.7613899996  0.0000000000
     -0.0034538454 -0.0116041962 27.0712372926
